p edge 500 -
e 1 2
e 1 3
e 1 4
e 1 7
e 1 8
e 1 9
e 1 10
e 1 11
e 1 12
e 1 14
e 1 15
e 1 16
e 1 17
e 1 18
e 1 19
e 1 20
e 1 21
e 1 22
e 1 23
e 1 25
e 1 26
e 1 29
e 1 30
e 1 41
e 1 44
e 1 45
e 1 47
e 1 51
e 1 61
e 1 62
e 1 63
e 1 64
e 1 65
e 1 66
e 1 67
e 1 68
e 1 69
e 1 70
e 1 71
e 1 72
e 1 73
e 1 75
e 1 76
e 1 77
e 1 78
e 1 79
e 1 80
e 1 81
e 1 83
e 1 84
e 1 87
e 1 88
e 1 89
e 1 90
e 1 91
e 1 96
e 1 103
e 1 104
e 1 115
e 1 116
e 1 117
e 1 118
e 1 119
e 1 120
e 1 129
e 1 136
e 1 141
e 1 168
e 1 185
e 1 186
e 1 187
e 1 189
e 1 190
e 1 191
e 1 192
e 1 193
e 1 195
e 1 196
e 1 197
e 1 198
e 1 199
e 1 200
e 1 201
e 1 202
e 1 203
e 1 204
e 1 206
e 1 207
e 1 208
e 1 209
e 1 210
e 1 211
e 1 212
e 1 213
e 1 218
e 1 219
e 1 220
e 1 222
e 1 223
e 1 224
e 1 226
e 1 228
e 1 229
e 1 230
e 1 231
e 1 232
e 1 233
e 1 234
e 1 235
e 1 236
e 1 237
e 1 238
e 1 239
e 1 240
e 1 241
e 1 243
e 1 244
e 1 245
e 1 247
e 1 248
e 1 250
e 1 251
e 1 252
e 1 253
e 1 254
e 1 255
e 1 256
e 1 257
e 1 258
e 1 260
e 1 283
e 1 284
e 1 287
e 1 288
e 1 289
e 1 290
e 1 292
e 1 304
e 1 305
e 1 311
e 1 313
e 1 314
e 1 336
e 1 339
e 1 344
e 1 345
e 1 346
e 1 352
e 1 354
e 1 360
e 1 361
e 1 362
e 1 371
e 1 377
e 1 383
e 1 398
e 1 407
e 1 411
e 1 414
e 1 419
e 1 420
e 1 425
e 1 430
e 1 431
e 1 437
e 1 438
e 1 446
e 1 448
e 1 450
e 1 451
e 1 453
e 1 454
e 1 455
e 1 457
e 1 459
e 1 460
e 1 461
e 1 462
e 1 464
e 1 466
e 1 468
e 1 469
e 1 470
e 1 475
e 1 476
e 1 477
e 1 479
e 1 482
e 1 483
e 1 486
e 1 489
e 1 491
e 1 492
e 1 495
e 1 498
e 2 1
e 2 53
e 2 54
e 2 55
e 2 56
e 2 85
e 2 109
e 2 342
e 3 1
e 3 53
e 3 54
e 3 55
e 3 56
e 3 61
e 3 76
e 3 85
e 3 106
e 3 109
e 3 129
e 3 212
e 3 222
e 3 287
e 3 290
e 3 291
e 3 304
e 3 305
e 3 342
e 3 404
e 3 415
e 4 1
e 4 44
e 4 53
e 4 54
e 4 55
e 4 56
e 4 85
e 4 109
e 4 342
e 5 1
e 5 53
e 5 54
e 5 55
e 5 56
e 5 61
e 5 85
e 5 109
e 5 342
e 6 1
e 6 53
e 6 54
e 6 55
e 6 56
e 6 85
e 6 109
e 6 179
e 6 342
e 6 378
e 6 381
e 6 384
e 7 1
e 7 53
e 7 54
e 7 55
e 7 56
e 7 85
e 7 101
e 7 109
e 7 223
e 7 342
e 7 382
e 8 1
e 8 53
e 8 61
e 8 344
e 8 352
e 8 407
e 8 457
e 9 1
e 9 67
e 9 68
e 9 69
e 9 70
e 9 71
e 9 72
e 9 73
e 9 75
e 9 77
e 9 78
e 9 79
e 9 81
e 9 82
e 9 83
e 9 84
e 9 87
e 9 88
e 9 89
e 9 91
e 9 383
e 10 1
e 10 93
e 10 95
e 10 96
e 10 98
e 10 99
e 10 101
e 10 102
e 10 103
e 10 104
e 10 105
e 10 106
e 10 107
e 10 108
e 10 348
e 10 379
e 10 421
e 10 441
e 10 465
e 10 478
e 10 484
e 11 1
e 11 111
e 11 286
e 11 392
e 12 1
e 12 8
e 12 54
e 12 64
e 12 115
e 12 118
e 12 119
e 12 120
e 12 420
e 13 1
e 13 126
e 13 129
e 13 130
e 13 363
e 13 380
e 13 382
e 13 463
e 13 500
e 14 1
e 14 291
e 15 1
e 15 121
e 15 125
e 15 126
e 15 130
e 15 131
e 15 136
e 15 139
e 15 146
e 15 148
e 15 149
e 15 164
e 15 165
e 15 363
e 15 382
e 15 434
e 16 1
e 16 169
e 16 170
e 16 171
e 16 172
e 16 173
e 16 174
e 16 175
e 16 176
e 16 177
e 16 178
e 16 179
e 16 180
e 17 1
e 17 129
e 17 130
e 17 182
e 17 183
e 17 363
e 17 439
e 17 443
e 17 467
e 17 471
e 17 488
e 17 490
e 17 499
e 18 1
e 18 185
e 18 186
e 18 187
e 18 188
e 18 189
e 18 190
e 18 191
e 18 195
e 18 196
e 18 197
e 18 198
e 18 199
e 18 200
e 18 201
e 18 202
e 18 203
e 18 204
e 18 205
e 18 206
e 18 207
e 18 208
e 18 209
e 18 210
e 18 211
e 18 212
e 18 213
e 18 214
e 18 215
e 18 219
e 18 220
e 18 222
e 18 223
e 18 224
e 18 225
e 18 226
e 18 227
e 18 228
e 18 354
e 18 361
e 18 408
e 18 477
e 18 483
e 18 492
e 18 498
e 19 1
e 19 55
e 19 229
e 19 230
e 19 231
e 19 232
e 19 233
e 19 234
e 19 235
e 19 236
e 19 237
e 19 238
e 19 239
e 19 240
e 19 241
e 19 242
e 19 243
e 19 244
e 19 245
e 19 246
e 19 247
e 19 248
e 19 284
e 20 1
e 21 1
e 22 1
e 22 4
e 23 1
e 23 8
e 24 1
e 25 1
e 26 1
e 26 20
e 26 21
e 26 22
e 26 23
e 26 25
e 26 45
e 26 65
e 26 66
e 26 218
e 26 250
e 26 251
e 26 252
e 26 253
e 26 254
e 26 255
e 26 256
e 27 1
e 27 20
e 27 21
e 27 22
e 27 23
e 27 25
e 27 45
e 27 65
e 27 66
e 27 218
e 27 250
e 27 251
e 27 252
e 27 253
e 27 254
e 27 255
e 27 256
e 28 2
e 28 283
e 29 2
e 29 283
e 30 2
e 30 283
e 31 3
e 31 41
e 31 415
e 32 3
e 32 41
e 32 287
e 33 3
e 33 41
e 34 3
e 34 41
e 35 3
e 35 41
e 36 3
e 36 41
e 37 3
e 37 41
e 38 3
e 38 41
e 39 3
e 39 41
e 39 303
e 40 3
e 40 41
e 40 56
e 40 303
e 41 3
e 42 4
e 42 18
e 42 20
e 42 22
e 42 27
e 42 29
e 42 61
e 42 115
e 42 119
e 42 120
e 42 140
e 42 169
e 42 170
e 42 171
e 42 172
e 42 174
e 42 176
e 42 177
e 42 178
e 42 179
e 42 180
e 42 197
e 42 202
e 42 205
e 42 214
e 42 218
e 42 223
e 42 235
e 42 257
e 42 291
e 42 359
e 42 367
e 42 378
e 42 402
e 42 403
e 42 422
e 42 428
e 42 432
e 42 444
e 42 460
e 42 466
e 42 469
e 43 4
e 43 29
e 43 257
e 44 4
e 44 28
e 44 29
e 44 55
e 44 56
e 44 257
e 44 311
e 44 313
e 45 4
e 45 64
e 46 5
e 46 316
e 46 318
e 46 319
e 46 320
e 46 321
e 46 322
e 46 323
e 46 324
e 46 325
e 46 326
e 46 327
e 46 328
e 46 329
e 46 330
e 46 332
e 46 333
e 46 417
e 47 7
e 47 116
e 48 7
e 49 7
e 50 7
e 51 7
e 52 7
e 52 15
e 52 121
e 52 130
e 52 138
e 52 140
e 52 144
e 52 150
e 52 153
e 52 395
e 52 444
e 53 7
e 54 7
e 55 7
e 56 7
e 57 7
e 58 7
e 59 7
e 60 8
e 61 8
e 61 61
e 61 64
e 61 407
e 61 420
e 62 8
e 62 53
e 62 64
e 62 136
e 62 360
e 62 386
e 62 398
e 62 420
e 63 8
e 63 54
e 63 64
e 63 420
e 64 8
e 65 8
e 66 8
e 67 9
e 68 9
e 69 9
e 70 9
e 71 9
e 72 9
e 73 9
e 73 87
e 74 9
e 75 9
e 75 76
e 76 9
e 76 83
e 76 84
e 76 88
e 77 9
e 77 53
e 77 76
e 77 424
e 78 9
e 78 76
e 79 9
e 79 76
e 80 9
e 80 76
e 81 9
e 82 9
e 82 76
e 83 9
e 83 76
e 84 9
e 84 76
e 84 80
e 84 90
e 85 9
e 85 15
e 85 17
e 85 80
e 85 83
e 85 84
e 85 88
e 85 103
e 85 130
e 85 410
e 86 9
e 86 76
e 87 9
e 87 72
e 87 74
e 87 76
e 88 9
e 88 76
e 88 77
e 89 9
e 89 76
e 90 9
e 91 9
e 91 76
e 92 9
e 92 182
e 93 10
e 94 10
e 95 10
e 95 98
e 95 102
e 96 10
e 96 93
e 96 102
e 96 106
e 97 10
e 97 106
e 98 10
e 99 10
e 100 10
e 101 10
e 101 93
e 101 96
e 101 99
e 101 101
e 101 102
e 101 103
e 101 104
e 101 105
e 101 106
e 101 348
e 101 379
e 101 421
e 101 441
e 101 465
e 101 478
e 101 484
e 102 10
e 102 93
e 102 96
e 102 99
e 102 101
e 102 102
e 102 103
e 102 104
e 102 105
e 102 106
e 102 348
e 102 379
e 102 421
e 102 441
e 102 465
e 102 478
e 102 484
e 103 10
e 103 102
e 104 10
e 104 102
e 104 103
e 105 10
e 105 102
e 106 10
e 106 36
e 106 96
e 106 97
e 106 102
e 106 106
e 106 300
e 107 10
e 107 93
e 107 96
e 107 97
e 107 103
e 107 300
e 108 10
e 108 102
e 109 10
e 110 11
e 111 11
e 112 11
e 113 11
e 114 11
e 115 12
e 116 12
e 117 12
e 118 12
e 119 12
e 120 12
e 120 115
e 120 116
e 120 117
e 121 13
e 122 14
e 123 15
e 123 126
e 123 130
e 123 138
e 124 15
e 125 15
e 126 15
e 126 121
e 126 130
e 126 131
e 127 15
e 127 131
e 128 15
e 129 15
e 129 130
e 130 15
e 130 52
e 130 123
e 130 125
e 130 128
e 130 129
e 130 133
e 130 134
e 130 135
e 130 137
e 130 138
e 130 141
e 130 144
e 130 148
e 130 150
e 130 152
e 130 155
e 130 160
e 130 262
e 130 363
e 130 382
e 130 395
e 130 426
e 130 438
e 131 15
e 131 125
e 131 131
e 132 15
e 132 131
e 132 132
e 133 15
e 133 130
e 133 134
e 133 135
e 133 148
e 133 426
e 134 15
e 135 15
e 136 15
e 136 144
e 136 438
e 137 15
e 138 15
e 138 55
e 138 130
e 138 134
e 138 135
e 138 148
e 138 149
e 138 426
e 139 15
e 139 138
e 139 426
e 139 438
e 140 15
e 140 138
e 140 438
e 141 15
e 141 54
e 141 138
e 141 426
e 142 15
e 142 138
e 143 15
e 143 138
e 143 426
e 143 438
e 144 15
e 144 54
e 144 138
e 144 148
e 144 426
e 145 15
e 145 138
e 146 15
e 146 54
e 146 138
e 146 426
e 147 15
e 147 54
e 147 426
e 148 15
e 148 133
e 148 138
e 148 150
e 149 15
e 150 15
e 150 130
e 150 134
e 150 135
e 150 148
e 150 149
e 150 426
e 151 15
e 152 15
e 153 15
e 153 150
e 153 342
e 154 15
e 155 15
e 155 363
e 156 15
e 157 15
e 158 15
e 159 15
e 159 363
e 160 15
e 160 144
e 160 438
e 161 15
e 161 161
e 161 363
e 162 15
e 163 15
e 163 363
e 164 15
e 164 165
e 164 277
e 164 363
e 165 15
e 166 15
e 167 15
e 168 15
e 169 16
e 169 169
e 169 170
e 169 171
e 169 172
e 169 174
e 169 176
e 169 177
e 169 178
e 169 179
e 169 180
e 170 16
e 170 53
e 170 169
e 170 170
e 170 171
e 170 172
e 170 174
e 170 176
e 170 177
e 170 178
e 170 179
e 170 180
e 171 16
e 171 169
e 171 170
e 171 171
e 171 172
e 171 174
e 171 176
e 171 177
e 171 178
e 171 179
e 171 180
e 172 16
e 172 169
e 172 170
e 172 171
e 172 172
e 172 174
e 172 176
e 172 177
e 172 178
e 172 179
e 172 180
e 173 16
e 173 53
e 173 169
e 173 170
e 173 171
e 173 172
e 173 174
e 173 176
e 173 177
e 173 178
e 173 179
e 173 180
e 174 16
e 174 169
e 174 170
e 174 171
e 174 172
e 174 174
e 174 176
e 174 177
e 174 178
e 174 179
e 174 180
e 175 16
e 175 55
e 176 16
e 176 169
e 176 170
e 176 171
e 176 172
e 176 174
e 176 176
e 176 177
e 176 178
e 176 179
e 176 180
e 177 16
e 177 53
e 177 169
e 177 170
e 177 171
e 177 172
e 177 174
e 177 176
e 177 177
e 177 178
e 177 179
e 177 180
e 178 16
e 178 169
e 178 170
e 178 171
e 178 172
e 178 174
e 178 176
e 178 177
e 178 178
e 178 179
e 178 180
e 179 16
e 179 169
e 179 170
e 179 171
e 179 172
e 179 174
e 179 176
e 179 177
e 179 178
e 179 179
e 179 180
e 180 16
e 181 17
e 182 17
e 182 427
e 183 17
e 183 427
e 184 17
e 185 18
e 185 187
e 185 225
e 185 354
e 185 408
e 186 18
e 186 187
e 187 18
e 187 54
e 187 185
e 187 186
e 187 198
e 187 199
e 187 222
e 187 228
e 187 361
e 188 18
e 189 18
e 189 187
e 189 203
e 189 222
e 190 18
e 190 187
e 190 189
e 190 196
e 190 198
e 190 199
e 190 203
e 190 222
e 190 354
e 191 18
e 191 53
e 191 198
e 191 199
e 191 200
e 191 208
e 191 220
e 191 222
e 192 18
e 192 185
e 192 203
e 192 212
e 192 228
e 192 361
e 193 18
e 194 18
e 194 173
e 194 212
e 194 287
e 194 290
e 195 18
e 195 222
e 196 18
e 196 222
e 197 18
e 197 222
e 198 18
e 198 222
e 199 18
e 200 18
e 200 189
e 200 198
e 200 199
e 200 203
e 200 205
e 200 208
e 200 214
e 200 215
e 200 219
e 200 222
e 200 223
e 201 18
e 201 55
e 201 205
e 201 214
e 201 215
e 201 222
e 202 18
e 202 192
e 202 198
e 202 199
e 202 220
e 202 222
e 202 342
e 203 18
e 203 222
e 204 18
e 204 222
e 205 18
e 206 18
e 206 198
e 206 199
e 206 222
e 207 18
e 207 209
e 207 212
e 207 222
e 208 18
e 208 198
e 208 199
e 208 203
e 208 209
e 208 219
e 208 220
e 208 222
e 208 223
e 209 18
e 210 18
e 210 53
e 210 210
e 210 211
e 210 212
e 210 220
e 210 222
e 210 227
e 211 18
e 211 210
e 211 211
e 211 212
e 211 222
e 212 18
e 212 210
e 212 211
e 212 212
e 212 222
e 213 18
e 213 222
e 214 18
e 214 185
e 214 186
e 214 187
e 214 189
e 214 190
e 214 197
e 214 198
e 214 199
e 214 200
e 214 201
e 214 202
e 214 203
e 214 205
e 214 206
e 214 208
e 214 209
e 214 210
e 214 211
e 214 212
e 214 213
e 214 214
e 214 215
e 214 219
e 214 220
e 214 222
e 214 223
e 214 224
e 214 228
e 214 361
e 215 18
e 216 18
e 217 18
e 218 18
e 219 18
e 219 222
e 220 18
e 220 222
e 221 18
e 221 223
e 222 18
e 222 185
e 222 186
e 222 187
e 222 189
e 222 190
e 222 191
e 222 195
e 222 196
e 222 197
e 222 198
e 222 199
e 222 200
e 222 201
e 222 202
e 222 203
e 222 204
e 222 206
e 222 207
e 222 208
e 222 209
e 222 210
e 222 211
e 222 212
e 222 213
e 222 219
e 222 220
e 222 222
e 222 223
e 222 224
e 222 226
e 222 228
e 222 354
e 222 361
e 222 477
e 222 492
e 222 498
e 223 18
e 223 185
e 223 186
e 223 187
e 223 189
e 223 190
e 223 191
e 223 195
e 223 196
e 223 197
e 223 198
e 223 199
e 223 200
e 223 201
e 223 202
e 223 203
e 223 204
e 223 206
e 223 207
e 223 208
e 223 209
e 223 210
e 223 211
e 223 212
e 223 213
e 223 219
e 223 220
e 223 222
e 223 223
e 223 224
e 223 226
e 223 228
e 223 354
e 223 361
e 223 477
e 223 492
e 223 498
e 224 18
e 225 18
e 225 206
e 225 222
e 225 225
e 225 408
e 226 18
e 226 198
e 226 199
e 226 201
e 226 206
e 226 224
e 227 18
e 227 206
e 228 18
e 228 186
e 228 192
e 229 19
e 229 229
e 229 230
e 229 231
e 229 232
e 229 233
e 229 234
e 229 235
e 229 236
e 229 237
e 229 238
e 229 239
e 229 240
e 229 241
e 229 243
e 229 244
e 229 245
e 229 247
e 229 248
e 229 284
e 230 19
e 230 229
e 230 230
e 230 231
e 230 232
e 230 233
e 230 234
e 230 235
e 230 236
e 230 237
e 230 238
e 230 240
e 230 241
e 230 243
e 230 244
e 230 245
e 230 247
e 230 248
e 231 19
e 231 229
e 231 230
e 231 231
e 231 232
e 231 233
e 231 234
e 231 235
e 231 236
e 231 237
e 231 238
e 231 239
e 231 240
e 231 241
e 231 243
e 231 244
e 231 245
e 231 247
e 231 248
e 231 284
e 232 19
e 232 229
e 232 230
e 232 231
e 232 232
e 232 233
e 232 234
e 232 235
e 232 236
e 232 237
e 232 238
e 232 239
e 232 240
e 232 241
e 232 243
e 232 244
e 232 245
e 232 247
e 232 248
e 232 284
e 233 19
e 233 229
e 233 230
e 233 231
e 233 232
e 233 233
e 233 234
e 233 235
e 233 236
e 233 237
e 233 238
e 233 240
e 233 241
e 233 243
e 233 244
e 233 245
e 233 247
e 233 248
e 234 19
e 234 229
e 234 230
e 234 231
e 234 232
e 234 233
e 234 234
e 234 235
e 234 236
e 234 237
e 234 238
e 234 239
e 234 240
e 234 241
e 234 243
e 234 244
e 234 245
e 234 247
e 234 248
e 234 284
e 235 19
e 235 229
e 235 230
e 235 231
e 235 232
e 235 233
e 235 234
e 235 235
e 235 236
e 235 237
e 235 238
e 235 240
e 235 241
e 235 243
e 235 244
e 235 245
e 235 247
e 235 248
e 236 19
e 236 229
e 236 230
e 236 231
e 236 232
e 236 233
e 236 234
e 236 235
e 236 236
e 236 237
e 236 238
e 236 239
e 236 240
e 236 241
e 236 243
e 236 244
e 236 245
e 236 247
e 236 248
e 236 284
e 237 19
e 237 229
e 237 230
e 237 231
e 237 232
e 237 233
e 237 234
e 237 235
e 237 236
e 237 237
e 237 238
e 237 239
e 237 240
e 237 241
e 237 243
e 237 244
e 237 245
e 237 247
e 237 248
e 237 284
e 238 19
e 238 229
e 238 230
e 238 231
e 238 232
e 238 233
e 238 234
e 238 235
e 238 236
e 238 237
e 238 238
e 238 239
e 238 240
e 238 241
e 238 243
e 238 244
e 238 245
e 238 247
e 238 248
e 238 284
e 239 19
e 239 229
e 239 230
e 239 231
e 239 232
e 239 233
e 239 234
e 239 235
e 239 236
e 239 237
e 239 238
e 239 239
e 239 240
e 239 241
e 239 243
e 239 244
e 239 245
e 239 247
e 239 248
e 239 284
e 240 19
e 240 229
e 240 230
e 240 231
e 240 232
e 240 233
e 240 234
e 240 235
e 240 236
e 240 237
e 240 238
e 240 239
e 240 240
e 240 241
e 240 243
e 240 244
e 240 245
e 240 247
e 240 248
e 240 284
e 241 19
e 241 229
e 241 230
e 241 231
e 241 232
e 241 233
e 241 235
e 241 236
e 241 237
e 241 238
e 241 239
e 241 240
e 241 241
e 241 243
e 241 244
e 241 245
e 241 247
e 241 248
e 241 284
e 242 19
e 242 239
e 242 284
e 243 19
e 244 19
e 245 19
e 246 19
e 247 19
e 248 19
e 249 20
e 249 21
e 249 22
e 249 23
e 249 25
e 249 26
e 249 45
e 249 65
e 249 66
e 249 218
e 249 250
e 249 251
e 249 252
e 249 253
e 249 254
e 249 255
e 249 256
e 250 20
e 250 22
e 250 218
e 251 20
e 251 22
e 251 218
e 252 20
e 252 22
e 252 218
e 253 20
e 253 22
e 253 218
e 254 20
e 254 22
e 254 218
e 255 20
e 255 22
e 255 218
e 256 20
e 256 22
e 256 218
e 257 20
e 258 20
e 258 21
e 258 22
e 258 23
e 258 25
e 258 45
e 258 65
e 258 66
e 258 218
e 258 250
e 258 251
e 258 252
e 258 253
e 258 254
e 258 255
e 258 256
e 259 20
e 259 21
e 259 22
e 259 23
e 259 25
e 259 45
e 259 65
e 259 66
e 259 218
e 259 250
e 259 251
e 259 252
e 259 253
e 259 254
e 259 255
e 259 256
e 260 21
e 260 23
e 260 25
e 260 26
e 260 44
e 260 45
e 260 51
e 260 65
e 260 66
e 260 175
e 260 250
e 260 251
e 260 252
e 260 253
e 260 254
e 260 255
e 260 256
e 260 336
e 260 339
e 260 341
e 260 343
e 260 371
e 260 389
e 260 391
e 260 457
e 260 497
e 261 24
e 261 160
e 261 262
e 261 263
e 261 264
e 261 265
e 261 266
e 261 267
e 261 268
e 261 269
e 261 270
e 261 271
e 261 272
e 261 273
e 261 274
e 261 275
e 261 276
e 261 277
e 261 278
e 261 279
e 261 280
e 262 24
e 262 263
e 262 264
e 262 265
e 262 266
e 262 267
e 262 268
e 262 269
e 262 270
e 262 271
e 262 272
e 262 273
e 262 274
e 262 275
e 262 276
e 262 277
e 262 278
e 262 279
e 262 280
e 262 281
e 263 24
e 263 263
e 263 264
e 263 265
e 263 266
e 263 267
e 263 268
e 263 269
e 263 270
e 263 271
e 263 272
e 263 273
e 263 274
e 263 275
e 263 276
e 263 277
e 263 278
e 263 279
e 263 280
e 264 24
e 264 263
e 264 264
e 264 265
e 264 266
e 264 267
e 264 268
e 264 269
e 264 270
e 264 271
e 264 272
e 264 273
e 264 274
e 264 275
e 264 276
e 264 277
e 264 278
e 264 279
e 264 280
e 265 24
e 265 264
e 265 265
e 265 268
e 265 269
e 265 270
e 265 271
e 265 272
e 265 273
e 266 24
e 266 263
e 266 264
e 266 265
e 266 266
e 266 267
e 266 268
e 266 269
e 266 270
e 266 271
e 266 272
e 266 273
e 266 274
e 266 275
e 266 276
e 266 277
e 266 278
e 266 279
e 266 280
e 267 24
e 267 263
e 267 264
e 267 265
e 267 266
e 267 267
e 267 268
e 267 269
e 267 270
e 267 271
e 267 272
e 267 273
e 267 274
e 267 275
e 267 276
e 267 277
e 267 278
e 267 279
e 267 280
e 268 24
e 268 264
e 268 265
e 268 268
e 268 269
e 268 270
e 268 271
e 268 272
e 268 273
e 269 24
e 269 264
e 269 265
e 269 268
e 269 269
e 269 270
e 269 271
e 269 272
e 269 273
e 270 24
e 270 264
e 270 265
e 270 268
e 270 269
e 270 270
e 270 271
e 270 272
e 270 273
e 271 24
e 271 264
e 271 265
e 271 268
e 271 269
e 271 270
e 271 271
e 271 272
e 271 273
e 272 24
e 272 264
e 272 265
e 272 268
e 272 269
e 272 270
e 272 271
e 272 272
e 272 273
e 273 24
e 273 264
e 273 265
e 273 268
e 273 269
e 273 270
e 273 271
e 273 272
e 273 273
e 274 24
e 274 263
e 274 264
e 274 265
e 274 266
e 274 267
e 274 268
e 274 269
e 274 270
e 274 271
e 274 272
e 274 273
e 274 274
e 274 275
e 274 276
e 274 277
e 274 278
e 274 279
e 274 280
e 275 24
e 275 263
e 275 264
e 275 265
e 275 266
e 275 267
e 275 268
e 275 269
e 275 270
e 275 271
e 275 272
e 275 273
e 275 274
e 275 275
e 275 276
e 275 277
e 275 278
e 275 279
e 275 280
e 276 24
e 276 263
e 276 264
e 276 265
e 276 266
e 276 267
e 276 268
e 276 269
e 276 270
e 276 271
e 276 272
e 276 273
e 276 274
e 276 275
e 276 276
e 276 277
e 276 278
e 276 279
e 276 280
e 277 24
e 277 263
e 277 264
e 277 265
e 277 266
e 277 267
e 277 268
e 277 269
e 277 270
e 277 271
e 277 272
e 277 273
e 277 274
e 277 275
e 277 276
e 277 277
e 277 278
e 277 279
e 277 280
e 278 24
e 278 263
e 278 264
e 278 265
e 278 266
e 278 267
e 278 268
e 278 269
e 278 270
e 278 271
e 278 272
e 278 273
e 278 274
e 278 275
e 278 276
e 278 277
e 278 278
e 278 279
e 278 280
e 279 24
e 279 263
e 279 264
e 279 265
e 279 266
e 279 267
e 279 268
e 279 269
e 279 270
e 279 271
e 279 272
e 279 273
e 279 274
e 279 275
e 279 276
e 279 277
e 279 278
e 279 279
e 279 280
e 280 24
e 280 263
e 280 264
e 280 265
e 280 266
e 280 267
e 280 268
e 280 269
e 280 270
e 280 271
e 280 272
e 280 273
e 280 274
e 280 275
e 280 276
e 280 277
e 280 278
e 280 279
e 280 280
e 281 24
e 281 160
e 281 262
e 281 263
e 281 264
e 281 265
e 281 266
e 281 267
e 281 268
e 281 269
e 281 270
e 281 271
e 281 272
e 281 273
e 281 274
e 281 275
e 281 276
e 281 277
e 281 278
e 281 279
e 281 280
e 282 27
e 283 28
e 284 32
e 284 242
e 285 32
e 285 106
e 286 32
e 287 32
e 288 32
e 288 53
e 288 304
e 289 32
e 289 53
e 290 32
e 291 32
e 292 32
e 292 53
e 293 33
e 293 288
e 294 33
e 295 34
e 296 34
e 297 34
e 298 35
e 298 162
e 299 35
e 300 36
e 300 102
e 300 103
e 300 104
e 300 106
e 301 36
e 302 37
e 303 39
e 303 40
e 304 39
e 304 40
e 305 39
e 306 39
e 307 39
e 307 40
e 308 40
e 309 41
e 310 44
e 311 44
e 311 342
e 312 44
e 312 53
e 312 55
e 312 290
e 312 409
e 313 44
e 314 44
e 314 55
e 314 201
e 315 46
e 315 316
e 315 317
e 315 318
e 315 319
e 315 320
e 315 321
e 315 322
e 315 323
e 315 324
e 315 325
e 315 327
e 315 328
e 315 329
e 315 332
e 315 333
e 316 46
e 316 316
e 316 317
e 316 318
e 316 319
e 316 320
e 316 321
e 316 322
e 316 323
e 316 324
e 316 325
e 316 327
e 316 328
e 316 329
e 316 332
e 316 333
e 317 46
e 317 64
e 317 316
e 317 317
e 317 318
e 317 319
e 317 320
e 317 321
e 317 322
e 317 323
e 317 324
e 317 325
e 317 326
e 317 327
e 317 328
e 317 329
e 317 332
e 317 333
e 317 420
e 318 46
e 318 316
e 318 317
e 318 318
e 318 319
e 318 320
e 318 321
e 318 322
e 318 323
e 318 324
e 318 325
e 318 326
e 318 327
e 318 328
e 318 329
e 318 332
e 318 333
e 319 46
e 319 316
e 319 317
e 319 318
e 319 319
e 319 320
e 319 321
e 319 322
e 319 323
e 319 324
e 319 325
e 319 326
e 319 327
e 319 328
e 319 329
e 319 332
e 319 333
e 320 46
e 320 316
e 320 317
e 320 318
e 320 319
e 320 320
e 320 321
e 320 322
e 320 323
e 320 324
e 320 325
e 320 326
e 320 327
e 320 328
e 320 329
e 320 332
e 320 333
e 321 46
e 321 316
e 321 317
e 321 318
e 321 319
e 321 320
e 321 321
e 321 322
e 321 323
e 321 324
e 321 325
e 321 326
e 321 327
e 321 328
e 321 329
e 321 332
e 321 333
e 322 46
e 322 316
e 322 317
e 322 318
e 322 319
e 322 320
e 322 321
e 322 322
e 322 323
e 322 324
e 322 325
e 322 326
e 322 327
e 322 328
e 322 329
e 322 332
e 322 333
e 323 46
e 323 316
e 323 317
e 323 318
e 323 319
e 323 320
e 323 321
e 323 322
e 323 323
e 323 324
e 323 325
e 323 327
e 323 328
e 323 329
e 323 332
e 323 333
e 324 46
e 324 316
e 324 317
e 324 318
e 324 319
e 324 320
e 324 321
e 324 322
e 324 323
e 324 324
e 324 325
e 324 326
e 324 327
e 324 328
e 324 329
e 324 332
e 324 333
e 325 46
e 325 316
e 325 317
e 325 318
e 325 319
e 325 320
e 325 321
e 325 322
e 325 323
e 325 324
e 325 325
e 325 326
e 325 327
e 325 328
e 325 329
e 325 332
e 325 333
e 326 46
e 326 316
e 326 317
e 326 318
e 326 319
e 326 320
e 326 321
e 326 322
e 326 323
e 326 324
e 326 325
e 326 326
e 326 327
e 326 328
e 326 329
e 326 332
e 326 333
e 327 46
e 327 316
e 327 317
e 327 318
e 327 319
e 327 320
e 327 321
e 327 322
e 327 323
e 327 324
e 327 325
e 327 326
e 327 327
e 327 328
e 327 329
e 327 332
e 327 333
e 328 46
e 328 316
e 328 317
e 328 318
e 328 319
e 328 320
e 328 321
e 328 322
e 328 323
e 328 324
e 328 325
e 328 326
e 328 327
e 328 328
e 328 329
e 328 332
e 328 333
e 329 46
e 329 315
e 329 316
e 329 317
e 329 318
e 329 319
e 329 320
e 329 321
e 329 322
e 329 323
e 329 324
e 329 325
e 329 326
e 329 327
e 329 328
e 329 329
e 329 332
e 329 333
e 330 46
e 330 316
e 330 317
e 330 318
e 330 319
e 330 320
e 330 321
e 330 322
e 330 323
e 330 324
e 330 325
e 330 326
e 330 327
e 330 328
e 330 329
e 330 332
e 330 333
e 331 46
e 331 316
e 331 317
e 331 318
e 331 319
e 331 320
e 331 321
e 331 322
e 331 323
e 331 324
e 331 325
e 331 326
e 331 327
e 331 328
e 331 329
e 331 332
e 331 333
e 332 46
e 332 317
e 333 46
e 333 317
e 334 46
e 334 317
e 335 46
e 335 316
e 335 317
e 335 318
e 335 319
e 335 320
e 335 321
e 335 322
e 335 323
e 335 324
e 335 325
e 335 327
e 335 328
e 335 329
e 335 331
e 335 332
e 335 333
e 336 51
e 336 336
e 336 339
e 336 341
e 336 343
e 337 51
e 337 336
e 337 339
e 337 341
e 337 343
e 338 51
e 339 51
e 340 51
e 341 51
e 341 342
e 342 51
e 343 51
e 344 52
e 344 198
e 344 199
e 344 203
e 344 222
e 344 223
e 345 53
e 345 342
e 346 53
e 347 53
e 348 53
e 348 421
e 349 53
e 350 53
e 351 53
e 352 53
e 353 53
e 353 55
e 353 149
e 354 53
e 354 54
e 354 222
e 355 53
e 356 53
e 357 53
e 358 53
e 358 54
e 358 130
e 358 380
e 358 463
e 358 500
e 359 53
e 360 53
e 360 496
e 361 53
e 361 185
e 361 186
e 361 220
e 361 222
e 361 228
e 361 361
e 361 492
e 362 53
e 363 53
e 363 134
e 364 53
e 365 53
e 365 459
e 366 53
e 366 201
e 367 53
e 368 53
e 369 53
e 370 53
e 371 53
e 371 54
e 372 53
e 373 53
e 373 55
e 373 149
e 374 53
e 374 55
e 374 427
e 375 53
e 376 53
e 376 54
e 377 53
e 378 53
e 379 53
e 379 102
e 379 103
e 379 421
e 380 53
e 380 124
e 381 53
e 382 53
e 382 124
e 383 53
e 383 76
e 383 82
e 384 53
e 385 53
e 385 145
e 385 148
e 386 53
e 386 54
e 387 53
e 387 55
e 388 53
e 388 55
e 388 76
e 389 53
e 389 54
e 389 420
e 390 53
e 391 53
e 391 391
e 392 53
e 393 53
e 394 53
e 394 393
e 395 53
e 396 53
e 397 53
e 397 54
e 397 420
e 398 53
e 399 53
e 400 53
e 401 53
e 401 55
e 401 56
e 402 53
e 403 53
e 404 53
e 405 53
e 406 53
e 407 53
e 407 61
e 408 53
e 408 54
e 409 53
e 410 53
e 411 53
e 412 53
e 413 53
e 413 54
e 414 53
e 414 55
e 414 415
e 415 53
e 416 53
e 417 53
e 417 326
e 418 53
e 419 53
e 419 55
e 420 54
e 421 54
e 421 348
e 421 441
e 421 478
e 422 54
e 423 54
e 423 55
e 424 54
e 424 76
e 425 54
e 426 54
e 427 54
e 428 54
e 429 54
e 429 55
e 429 420
e 430 54
e 431 54
e 432 54
e 433 54
e 434 54
e 435 54
e 435 135
e 436 54
e 437 54
e 438 54
e 439 54
e 440 54
e 441 54
e 441 421
e 442 54
e 443 54
e 444 54
e 444 140
e 444 426
e 444 444
e 445 54
e 446 54
e 446 420
e 447 54
e 448 54
e 449 54
e 450 54
e 451 54
e 452 54
e 452 420
e 453 54
e 454 54
e 455 54
e 456 54
e 456 144
e 456 438
e 457 54
e 458 54
e 458 290
e 458 459
e 459 54
e 460 54
e 460 420
e 460 460
e 461 54
e 462 54
e 463 54
e 463 358
e 464 54
e 465 54
e 465 421
e 466 54
e 466 55
e 467 54
e 468 54
e 469 54
e 470 54
e 471 54
e 472 54
e 473 54
e 474 54
e 475 54
e 476 54
e 477 54
e 477 198
e 477 199
e 478 54
e 478 421
e 479 54
e 480 54
e 481 54
e 482 54
e 483 54
e 483 187
e 483 222
e 484 54
e 484 421
e 485 54
e 486 54
e 486 420
e 487 54
e 487 201
e 488 54
e 489 54
e 490 54
e 491 54
e 491 55
e 492 54
e 492 187
e 492 222
e 493 54
e 494 54
e 495 54
e 496 54
e 497 54
e 498 54
e 498 222
e 499 54
e 500 54
e 500 358
